\* AssignmentProblem *\
Minimize
OBJ: 18289.292545 A320_000_VABB_VECC + 18840.2489931 A320_000_VOBL_VIDP
 + 17791.7685266 A320_000_VOMM_VIJP + 29184.9118711 A332_001_VABB_VECC
 + 30144.4983534 A332_001_VOBL_VIDP + 28408.1029254 A332_001_VOMM_VIJP
 + 18437.0566823 B738_002_VABB_VECC + 19253.3575926 B738_002_VOBL_VIDP
 + 17940.1417157 B738_002_VOMM_VIJP
Subject To
_C1: A320_000_VABB_VECC + A320_000_VOBL_VIDP + A320_000_VOMM_VIJP <= 1
_C2: A332_001_VABB_VECC + A332_001_VOBL_VIDP + A332_001_VOMM_VIJP <= 1
_C3: B738_002_VABB_VECC + B738_002_VOBL_VIDP + B738_002_VOMM_VIJP <= 1
_C4: A320_000_VOBL_VIDP + A332_001_VOBL_VIDP + B738_002_VOBL_VIDP = 1
_C5: A320_000_VABB_VECC + A332_001_VABB_VECC + B738_002_VABB_VECC = 1
_C6: A320_000_VOMM_VIJP + A332_001_VOMM_VIJP + B738_002_VOMM_VIJP = 1
Binaries
A320_000_VABB_VECC
A320_000_VOBL_VIDP
A320_000_VOMM_VIJP
A332_001_VABB_VECC
A332_001_VOBL_VIDP
A332_001_VOMM_VIJP
B738_002_VABB_VECC
B738_002_VOBL_VIDP
B738_002_VOMM_VIJP
End
